(set-logic QF_S)
(declare-fun var0 () String)
(declare-fun var1 () String)
(declare-fun var2 () String)
(declare-fun var3 () String)
(declare-fun var4 () String)
(declare-fun var5 () String)
(declare-fun var6 () String)
(declare-fun var7 () String)
(declare-fun var8 () String)
(declare-fun var9 () String)
(declare-fun var10 () String)
(declare-fun var11 () String)
(declare-fun var12 () String)
(declare-fun var13 () String)
(declare-fun var14 () String)
(declare-fun var15 () String)
(declare-fun var16 () String)
(declare-fun var17 () String)
(declare-fun var18 () String)
(declare-fun var19 () String)
(declare-fun var20 () String)
(declare-fun var21 () String)
(declare-fun var22 () String)
(declare-fun var23 () String)
(declare-fun var24 () String)
(declare-fun var25 () String)
(declare-fun var26 () String)
(declare-fun var27 () String)
(declare-fun var28 () String)
(declare-fun var29 () String)
(declare-fun var30 () String)
(declare-fun var31 () String)
(declare-fun var32 () String)
(declare-fun var33 () String)
(declare-fun var34 () String)
(declare-fun var35 () String)
(declare-fun var36 () String)
(declare-fun var37 () String)
(declare-fun var38 () String)
(declare-fun var39 () String)
(declare-fun var40 () String)
(declare-fun var41 () String)
(declare-fun var42 () String)
(declare-fun var43 () String)
(declare-fun var44 () String)
(declare-fun var45 () String)
(declare-fun var46 () String)
(declare-fun var47 () String)
(declare-fun var48 () String)
(declare-fun var49 () String)
(declare-fun var50 () String)
(declare-fun var51 () String)
(declare-fun var52 () String)
(declare-fun var53 () String)
(declare-fun var54 () String)
(declare-fun var55 () String)
(declare-fun var56 () String)
(declare-fun var57 () String)
(declare-fun var58 () String)
(declare-fun var59 () String)
(declare-fun var60 () String)
(assert (= var0 (Concat var1 var2)))
(assert (= var2 (Concat var3 var4)))
(assert (= var4 (Concat var5 var6)))
(assert (= var6 (Concat var7 var8)))
(assert (= var8 (Concat var9 var10)))
(assert (= var10 (Concat var11 var12)))
(assert (= var12 (Concat var13 var14)))
(assert (= var14 (Concat var15 var16)))
(assert (= var16 (Concat var17 var18)))
(assert (= var18 (Concat var19 var20)))
(assert (= var20 (Concat var21 var22)))
(assert (= var22 (Concat var23 var24)))
(assert (= var24 (Concat var25 var26)))
(assert (= var26 (Concat var27 var28)))
(assert (= var28 (Concat var29 var30)))
(assert (= var30 (Concat var31 var32)))
(assert (= var32 (Concat var33 var34)))
(assert (= var34 (Concat var35 var36)))
(assert (= var36 (Concat var37 var38)))
(assert (= var38 (Concat var39 var40)))
(assert (= var40 (Concat var41 var42)))
(assert (= var42 (Concat var43 var44)))
(assert (= var44 (Concat var45 var46)))
(assert (= var46 (Concat var47 var48)))
(assert (= var48 (Concat var49 var50)))
(assert (= var50 (Concat var51 var52)))
(assert (= var52 (Concat var53 var54)))
(assert (= var54 (Concat var55 var56)))
(assert (= var56 (Concat var57 var58)))
(assert (= var58 (Concat var59 var60)))
(assert (= var0 "solution"))
(assert (= "," (CharAt var50 133)))
(assert (= "M" (CharAt var53 287)))
(assert (= "`" (CharAt var53 774)))
(assert (= "a" (CharAt var6 165)))
(assert (= "'" (CharAt var12 493)))
(assert (= "B" (CharAt var52 33)))
(assert (= "`" (CharAt var7 243)))
(assert (= "v" (CharAt var39 366)))
(assert (= "K" (CharAt var36 178)))
(assert (= "W" (CharAt var5 447)))
(assert (= "h" (CharAt var45 432)))
(assert (= "~" (CharAt var40 802)))
(assert (= "P" (CharAt var51 597)))
(assert (= "?" (CharAt var10 379)))
(assert (= "R" (CharAt var31 610)))
(assert (= "g" (CharAt var52 150)))
(assert (= "p" (CharAt var21 369)))
(assert (= "X" (CharAt var28 531)))
(assert (= "m" (CharAt var17 911)))
(assert (= "[" (CharAt var42 167)))
(assert (= "s" (CharAt var0 799)))
(assert (= "L" (CharAt var2 26)))
(assert (= "v" (CharAt var7 529)))
(assert (= "W" (CharAt var58 578)))
(assert (= ")" (CharAt var33 626)))
(assert (= "m" (CharAt var19 75)))
(assert (= "#" (CharAt var27 215)))
(assert (= "R" (CharAt var54 247)))
(assert (= "%" (CharAt var53 810)))
(assert (= "." (CharAt var60 315)))
(assert (= "O" (CharAt var52 133)))
(assert (= "P" (CharAt var27 269)))
(assert (= "W" (CharAt var13 620)))
(assert (= "V" (CharAt var23 832)))
(assert (= "S" (CharAt var30 376)))
(assert (= "c" (CharAt var48 211)))
(assert (= "H" (CharAt var35 480)))
(assert (= "&" (CharAt var32 702)))
(assert (= "t" (CharAt var15 268)))
(assert (= "c" (CharAt var41 60)))
(assert (= "{" (CharAt var4 402)))
(assert (= "s" (CharAt var29 733)))
(assert (= "D" (CharAt var53 678)))
(assert (= "g" (CharAt var54 951)))
(assert (= "1" (CharAt var1 730)))
(assert (= "3" (CharAt var10 454)))
(assert (= "O" (CharAt var20 262)))
(assert (= "O" (CharAt var36 531)))
(assert (= "F" (CharAt var2 971)))
(assert (= "u" (CharAt var60 56)))
(assert (= "H" (CharAt var42 99)))
(assert (= "@" (CharAt var46 282)))
(assert (= "," (CharAt var3 190)))
(assert (= "e" (CharAt var52 816)))
(assert (= "3" (CharAt var18 560)))
(assert (= "s" (CharAt var4 431)))
(assert (= "D" (CharAt var15 302)))
(assert (= "O" (CharAt var19 230)))
(assert (= ";" (CharAt var54 913)))
(assert (= "c" (CharAt var23 294)))
(assert (= "." (CharAt var31 638)))
(assert (= "+" (CharAt var0 803)))
(assert (= "o" (CharAt var9 211)))
(assert (= "R" (CharAt var9 820)))
(assert (= ";" (CharAt var39 451)))
(assert (= "5" (CharAt var2 22)))
(assert (= "p" (CharAt var32 957)))
(assert (= "Y" (CharAt var11 121)))
(assert (= "H" (CharAt var31 807)))
(assert (= "-" (CharAt var39 869)))
(assert (= "*" (CharAt var51 195)))
(assert (= "z" (CharAt var39 145)))
(assert (= "y" (CharAt var25 316)))
(assert (= "C" (CharAt var14 114)))
(assert (= "m" (CharAt var46 459)))
(assert (= "~" (CharAt var18 409)))
(assert (= "%" (CharAt var15 18)))
(assert (= "t" (CharAt var7 768)))
(assert (= "*" (CharAt var2 586)))
(assert (= "`" (CharAt var42 143)))
(assert (= "2" (CharAt var5 835)))
(assert (= "e" (CharAt var19 235)))
(assert (= "$" (CharAt var37 831)))
(assert (= "G" (CharAt var59 221)))
(assert (= "y" (CharAt var44 231)))
(assert (= "9" (CharAt var9 268)))
(assert (= "7" (CharAt var22 155)))
(assert (= "B" (CharAt var40 296)))
(assert (= "+" (CharAt var55 37)))
(assert (= "(" (CharAt var34 798)))
(assert (= "`" (CharAt var39 445)))
(assert (= "m" (CharAt var21 445)))
(assert (= "3" (CharAt var16 398)))
(assert (= "N" (CharAt var45 828)))
(assert (= "P" (CharAt var26 543)))
(assert (= "L" (CharAt var25 962)))
(assert (= "\\" (CharAt var59 593)))
(assert (= "O" (CharAt var54 291)))
(assert (= "{" (CharAt var30 405)))
(assert (= "~" (CharAt var39 363)))
(assert (= "%" (CharAt var56 440)))
(assert (= "{" (CharAt var41 872)))
(assert (= "Y" (CharAt var18 984)))
(assert (= "7" (CharAt var19 83)))
(assert (= ";" (CharAt var16 684)))
(assert (= "}" (CharAt var34 245)))
(assert (= "[" (CharAt var50 437)))
(assert (= ">" (CharAt var3 279)))
(assert (= "r" (CharAt var40 785)))
(assert (= "A" (CharAt var52 201)))
(assert (= "7" (CharAt var21 229)))
(assert (= "e" (CharAt var47 303)))
(assert (= "Q" (CharAt var7 446)))
(assert (= "p" (CharAt var35 851)))
(assert (= "!" (CharAt var28 826)))
(assert (= "\"" (CharAt var49 804)))
(assert (= "/" (CharAt var4 30)))
(assert (= "x" (CharAt var14 153)))
(assert (= "r" (CharAt var27 281)))
(assert (= "e" (CharAt var44 431)))
(assert (= "e" (CharAt var43 24)))
(assert (= "B" (CharAt var21 898)))
(assert (= "'" (CharAt var11 843)))
(assert (= "u" (CharAt var37 911)))
(assert (= "]" (CharAt var38 355)))
(assert (= "d" (CharAt var44 601)))
(assert (= "!" (CharAt var4 467)))
(assert (= "^" (CharAt var13 578)))
(assert (= "?" (CharAt var31 119)))
(assert (= "g" (CharAt var52 856)))
(assert (= "~" (CharAt var51 662)))
(assert (= "2" (CharAt var28 323)))
(assert (= "1" (CharAt var27 589)))
(assert (= "Q" (CharAt var30 835)))
(assert (= ";" (CharAt var20 685)))
(assert (= "|" (CharAt var19 894)))
(assert (= "p" (CharAt var55 489)))
(assert (= "2" (CharAt var39 371)))
(assert (= "m" (CharAt var5 249)))
(assert (= "," (CharAt var14 29)))
(assert (= "&" (CharAt var45 852)))
(assert (= "U" (CharAt var31 602)))
(assert (= "P" (CharAt var24 841)))
(assert (= "t" (CharAt var42 120)))
(assert (= "W" (CharAt var16 771)))
(assert (= "\"" (CharAt var14 498)))
(assert (= "K" (CharAt var55 716)))
(assert (= "G" (CharAt var21 383)))
(assert (= "M" (CharAt var25 68)))
(assert (= "_" (CharAt var53 575)))
(assert (= "~" (CharAt var19 396)))
(assert (= "C" (CharAt var17 260)))
(assert (= "s" (CharAt var24 790)))
(assert (= "e" (CharAt var10 59)))
(assert (= "'" (CharAt var1 603)))
(assert (= "n" (CharAt var29 659)))
(assert (= "H" (CharAt var20 622)))
(assert (= "e" (CharAt var32 849)))
(assert (= "Z" (CharAt var19 655)))
(assert (= "g" (CharAt var29 876)))
(assert (= "Q" (CharAt var25 722)))
(assert (= "9" (CharAt var47 840)))
(assert (= "\\" (CharAt var11 345)))
(assert (= "Z" (CharAt var24 162)))
(assert (= "N" (CharAt var51 156)))
(assert (= "7" (CharAt var56 872)))
(assert (= "s" (CharAt var35 67)))
(assert (= "k" (CharAt var39 140)))
(assert (= "B" (CharAt var10 634)))
(assert (= "&" (CharAt var13 18)))
(assert (= "p" (CharAt var5 806)))
(assert (= ":" (CharAt var14 243)))
(assert (= "E" (CharAt var55 598)))
(assert (= "9" (CharAt var56 591)))
(assert (= "?" (CharAt var13 238)))
(assert (= "Q" (CharAt var10 96)))
(assert (= "u" (CharAt var2 745)))
(assert (= "t" (CharAt var21 248)))
(assert (= "}" (CharAt var47 428)))
(assert (= "$" (CharAt var48 875)))
(assert (= "," (CharAt var25 805)))
(assert (= "C" (CharAt var53 420)))
(assert (= "/" (CharAt var25 2)))
(assert (= "Z" (CharAt var39 499)))
(assert (= "l" (CharAt var28 516)))
(assert (= "<" (CharAt var51 352)))
(assert (= "[" (CharAt var33 182)))
(assert (= "Q" (CharAt var30 224)))
(assert (= "_" (CharAt var29 266)))
(assert (= "g" (CharAt var0 383)))
(assert (= "F" (CharAt var48 769)))
(assert (= "U" (CharAt var20 264)))
(assert (= "f" (CharAt var8 148)))
(assert (= "{" (CharAt var24 853)))
(assert (= "~" (CharAt var6 328)))
(assert (= "y" (CharAt var13 783)))
(assert (= "n" (CharAt var16 275)))
(assert (= "P" (CharAt var34 894)))
(assert (= "7" (CharAt var39 114)))
(assert (= "A" (CharAt var8 220)))
(assert (= "C" (CharAt var20 954)))
(assert (= "F" (CharAt var59 618)))
(assert (= "j" (CharAt var4 165)))
(assert (= "@" (CharAt var56 398)))
(assert (= "#" (CharAt var27 47)))
(assert (= "_" (CharAt var54 19)))
(assert (= "D" (CharAt var48 38)))
(assert (= "$" (CharAt var46 526)))
(assert (= "A" (CharAt var41 779)))
(assert (= "a" (CharAt var10 386)))
(assert (= "F" (CharAt var45 224)))
(assert (= "2" (CharAt var50 187)))
(assert (= ">" (CharAt var53 104)))
(assert (= "W" (CharAt var52 803)))
(assert (= "B" (CharAt var43 570)))
(assert (= "-" (CharAt var32 426)))
(assert (= "J" (CharAt var25 650)))
(assert (= "}" (CharAt var36 481)))
(assert (= "3" (CharAt var0 351)))
(assert (= "t" (CharAt var24 654)))
(assert (= "e" (CharAt var42 365)))
(assert (= "F" (CharAt var60 258)))
(assert (= "y" (CharAt var18 759)))
(assert (= "B" (CharAt var11 693)))
(assert (= "/" (CharAt var20 734)))
(assert (= "Y" (CharAt var35 93)))
(assert (= "{" (CharAt var15 369)))
(assert (= "w" (CharAt var48 568)))
(assert (= "-" (CharAt var46 321)))
(assert (= "p" (CharAt var0 929)))
(assert (= "5" (CharAt var25 336)))
(assert (= "W" (CharAt var50 936)))
(assert (= "q" (CharAt var31 168)))
(assert (= "D" (CharAt var43 690)))
(assert (= "`" (CharAt var5 671)))
(assert (= "]" (CharAt var13 646)))
(assert (= "&" (CharAt var60 785)))
(assert (= "2" (CharAt var14 19)))
(assert (= "P" (CharAt var11 603)))
(assert (= "*" (CharAt var5 219)))
(assert (= "t" (CharAt var6 239)))
(assert (= "r" (CharAt var14 414)))
(assert (= "2" (CharAt var50 643)))
(assert (= "9" (CharAt var28 867)))
(assert (= "j" (CharAt var52 89)))
(assert (= "N" (CharAt var1 830)))
(assert (= "z" (CharAt var6 498)))
(assert (= "{" (CharAt var56 165)))
(assert (= "D" (CharAt var2 855)))
(assert (= "Q" (CharAt var6 426)))
(assert (= "H" (CharAt var33 731)))
(assert (= "y" (CharAt var8 130)))
(assert (= "Z" (CharAt var2 686)))
(assert (= "_" (CharAt var22 90)))
(assert (= "e" (CharAt var56 608)))
(assert (= "#" (CharAt var17 59)))
(assert (= "v" (CharAt var22 352)))
(assert (= "}" (CharAt var19 793)))
(assert (= "J" (CharAt var26 503)))
(assert (= "*" (CharAt var16 264)))
(assert (= "l" (CharAt var47 495)))
(assert (= "&" (CharAt var45 53)))
(assert (= "." (CharAt var28 637)))
(assert (= "q" (CharAt var56 27)))
(assert (= "b" (CharAt var18 888)))
(assert (= "J" (CharAt var25 686)))
(assert (= "'" (CharAt var23 80)))
(assert (= "\\" (CharAt var43 936)))
(assert (= "6" (CharAt var20 19)))
(assert (= "I" (CharAt var24 669)))
(assert (= "q" (CharAt var29 705)))
(assert (= "C" (CharAt var15 851)))
(assert (= "l" (CharAt var30 992)))
(assert (= "'" (CharAt var9 172)))
(assert (= "j" (CharAt var47 817)))
(assert (= "N" (CharAt var10 830)))
(assert (= "P" (CharAt var38 188)))
(assert (= "q" (CharAt var7 875)))
(assert (= "6" (CharAt var21 489)))
(assert (= ":" (CharAt var29 291)))
(assert (= "G" (CharAt var20 584)))
(check-sat)
(get-model)